NAME: instance_1289
TYPE: TSP
DIMENSION: 20
EDGE_WEIGHT_TYPE: EUC_2D
NODE_COORD_SECTION
0 0.60 82.80
1 88.12 2.47
2 45.58 99.34
3 13.49 12.39
4 43.07 92.76
5 71.03 46.35
6 57.49 45.59
7 65.33 71.82
8 97.13 49.43
9 42.44 52.26
10 89.94 86.65
11 92.29 88.06
12 61.32 36.83
13 44.37 0.65
14 92.30 87.46
15 17.14 46.42
16 94.27 64.82
17 99.84 95.72
18 52.77 15.82
19 12.54 19.28
EOF
